problems/csplib-prob056/sonet-models/noch/O2/lingeling/model_4_1-s1ring09-solution000001.eprime-solution
language ESSENCE' 1.0

letting network_ExplicitWithFlagsR4_Flags be [2, 1, 1, 0; int(1..4)]
letting network_ExplicitWithFlagsR4_Values_ExplicitVarSizeWithFlags_Flags be
        [[true, true, true, false; int(1..4)], [true, true, true, false; int(1..4)],
         [true, true, true, true; int(1..4)], [false, false, false, false; int(1..4)]; int(1..4)]
letting network_ExplicitWithFlagsR4_Values_ExplicitVarSizeWithFlags_Values be
        [[1, 2, 7, 1; int(1..4)], [4, 5, 6, 1; int(1..4)], [2, 3, 4, 7; int(1..4)], [1, 1, 1, 1; int(1..4)]; int(1..4)]
