problems/csplib-prob056/sonet-models/noch/O2/lingeling/model_4_1-s1ring09-solution000001.solution
language Essence 1.3

letting network be mset({1, 2, 7}, {1, 2, 7}, {2, 3, 4, 7}, {4, 5, 6})
$ Here is a simple "visualisation" for the value above.
$ 1 2 7
$ 1 2 7
$ 2 3 4 7
$ 4 5 6

